Route #1: 91 15 66 89 103 75 93 86
Route #2: 84 25 62 56 13 57 35 77 60 90
Route #3: 78 119 52 27 82 113
Route #4: 3
Route #5: 16 12 96 95 116 92 49 73 114 32
Route #6: 5 106 68 98 4 111 121 87 80
Route #7: 88 18 59 23 1 44 64
Route #8: 9 124 30 43 39 67
Route #9: 128 110 17 101 58 48 2 34 21 33 46
Route #10: 7 54 22 45 29 6 19 63 20 50
Route #11: 102 112 72 100 108 71 126 26
Route #12: 38 118 28 127 47
Route #13: 53 123 117 99 42 97 31 125
Route #14: 65 105 11 41 40 55 61 85 76 79 10 104
Route #15: 24 83 109 51 120 37 8 69 14 74
Route #16: 94 81 36 107 122 115 70
Cost 26123.000000